Total weight: 1122.1784693602276
Route 1: 0 50 79 78 34 35 65 71 0 
Route 2: 0 89 18 60 84 17 86 16 61 98 97 95 0 
Route 3: 0 2 57 15 43 42 87 13 0 
Route 4: 0 28 76 68 80 12 0 
Route 5: 0 74 75 23 67 55 25 4 58 0 
Route 6: 0 6 96 99 5 8 46 45 83 0 
Route 7: 0 52 88 62 10 70 9 51 81 33 0 
Route 8: 0 59 93 85 91 44 38 14 100 37 92 94 0 
Route 9: 0 26 21 72 56 39 54 24 29 3 77 0 
Route 10: 0 53 40 73 22 41 0 
Route 11: 0 27 69 31 7 82 48 47 19 11 90 0 
Route 12: 0 1 30 20 66 32 63 64 49 36 0 
